Minimize
  obj: x0 + x1 + x2 + x3 + x4 + x5 + x6 + x7 + x8 + x9 + x10

Subject To
  c0: x0 + x1 + x2 + x3 + x4 + x5 = 64
  c1: x1 + x2 + x3 + x4 + x8 + x10 = 68
  c2: x1 + x2 + x3 + x6 + x7 + x9 = 51
  c3: x1 + x9 + x10 = 27
  c4: x2 + x3 + x4 + x5 + x9 + x10 = 74
  c5: x1 + x2 + x3 + x4 + x6 + x9 = 62
  c6: x1 + x2 + x3 + x4 + x5 + x6 = 65
  c7: x2 + x4 + x5 + x8 + x9 + x10 = 79
  c8: x0 + x1 + x4 + x5 + x6 + x7 + x10 = 92

Bounds
  x0 >= 0
  x1 >= 0
  x2 >= 0
  x3 >= 0
  x4 >= 0
  x5 >= 0
  x6 >= 0
  x7 >= 0
  x8 >= 0
  x9 >= 0
  x10 >= 0

Generals
  x0 x1 x2 x3 x4 x5 x6 x7 x8 x9 x10

End
